(set-logic LIA)



(define-fun get-y ((currPoint Int)) Int

    (ite (< currPoint 10) 0 (ite (< currPoint 20) 1 (ite (< currPoint 30) 2 (ite (< currPoint 40) 3 (ite (< currPoint 50) 4 (ite (< currPoint 60) 5 (ite (< currPoint 70) 6 (ite (< currPoint 80) 7 (ite (< currPoint 90) 8 9))))))))))

(define-fun get-x ((currPoint Int)) Int

    (- currPoint (* (get-y currPoint) 10)))

(define-fun interpret-move ((currPoint Int) (move Int)) Int

    (ite (= move 0) currPoint (ite (= move 1) (ite (or (< (+ (get-y currPoint) 1) 0) (>= (+ (get-y currPoint) 1) 10)) currPoint (+ currPoint 10)) (ite (= move 2) (ite (or (< (+ (get-x currPoint) 1) 0) (>= (+ (get-x currPoint) 1) 10)) currPoint (+ currPoint 1)) (ite (= move 3) (ite (or (< (+ (get-y currPoint) (- 1)) 0) (>= (+ (get-y currPoint) (- 1)) 10)) currPoint (+ currPoint (- 10))) (ite (= move 4) (ite (or (< (+ (get-x currPoint) (- 1)) 0) (>= (+ (get-x currPoint) (- 1)) 10)) currPoint (+ currPoint (- 1))) currPoint))))))

(define-fun interpret-move-obstacle-0 ((currPoint Int) (move Int)) Int

    (ite (= move 0) (ite (or (< (+ (get-y currPoint) 1) 0) (>= (+ (get-y currPoint) 1) 10)) currPoint (+ currPoint 10)) (ite (= move 1) (ite (or (< (+ (get-y currPoint) (- 1)) 0) (>= (+ (get-y currPoint) (- 1)) 10)) currPoint (+ currPoint (- 10))) currPoint)))

(define-fun interpret-move-obstacle-1 ((currPoint Int) (move Int)) Int

    (ite (= move 0) (ite (or (< (+ (get-y currPoint) 1) 0) (>= (+ (get-y currPoint) 1) 10)) currPoint (+ currPoint 10)) (ite (= move 1) currPoint (ite (= move 2) (ite (or (< (+ (get-y currPoint) (- 1)) 0) (>= (+ (get-y currPoint) (- 1)) 10)) currPoint (+ currPoint (- 10))) currPoint))))

(define-fun allowable-move-obstacle-0 ((start Int) (end Int)) Bool

    (or (= (interpret-move-obstacle-0 start 0) end) (or (= (interpret-move-obstacle-0 start 1) end) false)))

(define-fun allowable-move-obstacle-1 ((start Int) (end Int)) Bool

    (or (= (interpret-move-obstacle-1 start 0) end) (or (= (interpret-move-obstacle-1 start 1) end) (or (= (interpret-move-obstacle-1 start 2) end) false))))

(define-fun get-move-obstacle-0 ((start Int) (end Int)) Int

    (ite (= (interpret-move-obstacle-0 start 0) end) 0 (ite (= (interpret-move-obstacle-0 start 1) end) 1 (- 1))))

(define-fun get-move-obstacle-1 ((start Int) (end Int)) Int

    (ite (= (interpret-move-obstacle-1 start 0) end) 0 (ite (= (interpret-move-obstacle-1 start 1) end) 1 (ite (= (interpret-move-obstacle-1 start 2) end) 2 (- 1)))))

(define-fun no-overlap-one-move-combination-2-2 ((p0 Int) (p1 Int) (p2 Int) (p3 Int)) Bool

    (and (not (= p0 p2)) (and (not (= p0 p3)) (and (not (= p1 p2)) (and (not (= p1 p3)) true)))))

(define-fun no-overlaps-0 ((currPoint Int) (move Int) (obstacleCurrPoint Int) (obstacleMove Int)) Bool

    (= 1 (ite (= move 0) (ite (= obstacleMove 0) (ite (no-overlap-one-move-combination-2-2 currPoint (+ (+ currPoint 0) 0) obstacleCurrPoint (+ (+ obstacleCurrPoint 0) 10)) 1 0) (ite (= obstacleMove 1) (ite (no-overlap-one-move-combination-2-2 currPoint (+ (+ currPoint 0) 0) obstacleCurrPoint (+ (+ obstacleCurrPoint 0) (- 10))) 1 0) 0)) (ite (= move 1) (ite (= obstacleMove 0) (ite (no-overlap-one-move-combination-2-2 currPoint (+ (+ currPoint 0) 10) obstacleCurrPoint (+ (+ obstacleCurrPoint 0) 10)) 1 0) (ite (= obstacleMove 1) (ite (no-overlap-one-move-combination-2-2 currPoint (+ (+ currPoint 0) 10) obstacleCurrPoint (+ (+ obstacleCurrPoint 0) (- 10))) 1 0) 0)) (ite (= move 2) (ite (= obstacleMove 0) (ite (no-overlap-one-move-combination-2-2 currPoint (+ (+ currPoint 1) 0) obstacleCurrPoint (+ (+ obstacleCurrPoint 0) 10)) 1 0) (ite (= obstacleMove 1) (ite (no-overlap-one-move-combination-2-2 currPoint (+ (+ currPoint 1) 0) obstacleCurrPoint (+ (+ obstacleCurrPoint 0) (- 10))) 1 0) 0)) (ite (= move 3) (ite (= obstacleMove 0) (ite (no-overlap-one-move-combination-2-2 currPoint (+ (+ currPoint 0) (- 10)) obstacleCurrPoint (+ (+ obstacleCurrPoint 0) 10)) 1 0) (ite (= obstacleMove 1) (ite (no-overlap-one-move-combination-2-2 currPoint (+ (+ currPoint 0) (- 10)) obstacleCurrPoint (+ (+ obstacleCurrPoint 0) (- 10))) 1 0) 0)) (ite (= move 4) (ite (= obstacleMove 0) (ite (no-overlap-one-move-combination-2-2 currPoint (+ (+ currPoint (- 1)) 0) obstacleCurrPoint (+ (+ obstacleCurrPoint 0) 10)) 1 0) (ite (= obstacleMove 1) (ite (no-overlap-one-move-combination-2-2 currPoint (+ (+ currPoint (- 1)) 0) obstacleCurrPoint (+ (+ obstacleCurrPoint 0) (- 10))) 1 0) 0)) 0)))))))

(define-fun no-overlaps-1 ((currPoint Int) (move Int) (obstacleCurrPoint Int) (obstacleMove Int)) Bool

    (= 1 (ite (= move 0) (ite (= obstacleMove 0) (ite (no-overlap-one-move-combination-2-2 currPoint (+ (+ currPoint 0) 0) obstacleCurrPoint (+ (+ obstacleCurrPoint 0) 10)) 1 0) (ite (= obstacleMove 1) (ite (no-overlap-one-move-combination-2-2 currPoint (+ (+ currPoint 0) 0) obstacleCurrPoint (+ (+ obstacleCurrPoint 0) 0)) 1 0) (ite (= obstacleMove 2) (ite (no-overlap-one-move-combination-2-2 currPoint (+ (+ currPoint 0) 0) obstacleCurrPoint (+ (+ obstacleCurrPoint 0) (- 10))) 1 0) 0))) (ite (= move 1) (ite (= obstacleMove 0) (ite (no-overlap-one-move-combination-2-2 currPoint (+ (+ currPoint 0) 10) obstacleCurrPoint (+ (+ obstacleCurrPoint 0) 10)) 1 0) (ite (= obstacleMove 1) (ite (no-overlap-one-move-combination-2-2 currPoint (+ (+ currPoint 0) 10) obstacleCurrPoint (+ (+ obstacleCurrPoint 0) 0)) 1 0) (ite (= obstacleMove 2) (ite (no-overlap-one-move-combination-2-2 currPoint (+ (+ currPoint 0) 10) obstacleCurrPoint (+ (+ obstacleCurrPoint 0) (- 10))) 1 0) 0))) (ite (= move 2) (ite (= obstacleMove 0) (ite (no-overlap-one-move-combination-2-2 currPoint (+ (+ currPoint 1) 0) obstacleCurrPoint (+ (+ obstacleCurrPoint 0) 10)) 1 0) (ite (= obstacleMove 1) (ite (no-overlap-one-move-combination-2-2 currPoint (+ (+ currPoint 1) 0) obstacleCurrPoint (+ (+ obstacleCurrPoint 0) 0)) 1 0) (ite (= obstacleMove 2) (ite (no-overlap-one-move-combination-2-2 currPoint (+ (+ currPoint 1) 0) obstacleCurrPoint (+ (+ obstacleCurrPoint 0) (- 10))) 1 0) 0))) (ite (= move 3) (ite (= obstacleMove 0) (ite (no-overlap-one-move-combination-2-2 currPoint (+ (+ currPoint 0) (- 10)) obstacleCurrPoint (+ (+ obstacleCurrPoint 0) 10)) 1 0) (ite (= obstacleMove 1) (ite (no-overlap-one-move-combination-2-2 currPoint (+ (+ currPoint 0) (- 10)) obstacleCurrPoint (+ (+ obstacleCurrPoint 0) 0)) 1 0) (ite (= obstacleMove 2) (ite (no-overlap-one-move-combination-2-2 currPoint (+ (+ currPoint 0) (- 10)) obstacleCurrPoint (+ (+ obstacleCurrPoint 0) (- 10))) 1 0) 0))) (ite (= move 4) (ite (= obstacleMove 0) (ite (no-overlap-one-move-combination-2-2 currPoint (+ (+ currPoint (- 1)) 0) obstacleCurrPoint (+ (+ obstacleCurrPoint 0) 10)) 1 0) (ite (= obstacleMove 1) (ite (no-overlap-one-move-combination-2-2 currPoint (+ (+ currPoint (- 1)) 0) obstacleCurrPoint (+ (+ obstacleCurrPoint 0) 0)) 1 0) (ite (= obstacleMove 2) (ite (no-overlap-one-move-combination-2-2 currPoint (+ (+ currPoint (- 1)) 0) obstacleCurrPoint (+ (+ obstacleCurrPoint 0) (- 10))) 1 0) 0))) 0)))))))

(define-fun no-overlaps-one-step-helper ((currPoint Int) (move Int) (o0-t Int) (o0move Int) (o1-t Int) (o1move Int)) Bool

    (and (no-overlaps-0 currPoint move o0-t o0move) (and (no-overlaps-1 currPoint move o1-t o1move) true)))

(define-fun no-overlaps-one-step ((currPoint Int) (move Int) (o0-0 Int) (o0-1 Int) (o1-0 Int) (o1-1 Int)) Bool

    (no-overlaps-one-step-helper currPoint move o0-0 (get-move-obstacle-0 o0-0 o0-1) o1-0 (get-move-obstacle-1 o1-0 o1-1)))

(declare-var o0-1 Int)

(declare-var o0-2 Int)

(declare-var o0-3 Int)

(declare-var o0-4 Int)

(declare-var o0-5 Int)

(declare-var o0-6 Int)

(declare-var o0-7 Int)

(declare-var o1-1 Int)

(declare-var o1-2 Int)

(declare-var o1-3 Int)

(declare-var o1-4 Int)

(declare-var o1-5 Int)

(declare-var o1-6 Int)

(declare-var o1-7 Int)

(synth-fun move ((currPoint Int) (o0 Int) (o1 Int)) Int

    ((Start Int) (MoveId Int) (CondInt Int) (StartBool Bool))

    ((Start Int (MoveId (ite StartBool Start Start)))

    (MoveId Int (0 1 2 3 4))

    (CondInt Int ((get-y currPoint) (get-x currPoint) (get-y o0) (get-x o0) (get-y o1) (get-x o1) (+ CondInt CondInt) (- CondInt CondInt) (- 1) 0 1 2 3 4 5 6 7 8 9))

    (StartBool Bool ((and StartBool StartBool) (or StartBool StartBool) (not StartBool) (<= CondInt CondInt) (= CondInt CondInt) (>= CondInt CondInt)))))



(declare-var v0 Int)
(declare-var v1 Int)
(declare-var v2 Int)
(declare-var v3 Int)
(declare-var v4 Int)
(declare-var v5 Int)
(declare-var v6 Int)
(declare-var v7 Int)
(declare-var v8 Int)
(declare-var v9 Int)
(declare-var v10 Int)
(declare-var v11 Int)
(declare-var v12 Int)
(declare-var v13 Int)
(declare-var v14 Int)
(declare-var v15 Int)
(declare-var v16 Int)
(declare-var v17 Int)
(declare-var v18 Int)
(declare-var v19 Int)
(declare-var v20 Int)
(declare-var v21 Int)
(declare-var v22 Int)
(declare-var v23 Int)
(declare-var v24 Int)
(declare-var v25 Int)
(declare-var v26 Int)
(declare-var v27 Int)
(declare-var v28 Int)
(declare-var v29 Int)
(declare-var v30 Int)
(declare-var v31 Int)
(declare-var v32 Int)
(declare-var v33 Int)
(declare-var v34 Int)
(declare-var v35 Int)
(declare-var v36 Int)
(declare-var v37 Int)
(declare-var v38 Int)
(declare-var v39 Int)
(declare-var v40 Int)
(declare-var v41 Int)
(declare-var v42 Int)
(declare-var v43 Int)
(declare-var v44 Int)
(declare-var v45 Int)
(declare-var v46 Int)
(declare-var v47 Int)
(declare-var v48 Int)
(declare-var v49 Int)
(declare-var v50 Int)
(declare-var v51 Int)
(declare-var v52 Int)
(declare-var v53 Int)
(declare-var v54 Int)
(declare-var v55 Int)
(declare-var v56 Int)
(declare-var v57 Int)
(declare-var v58 Int)
(declare-var v59 Int)
(declare-var v60 Int)
(declare-var v61 Int)
(declare-var v62 Int)
(declare-var v63 Int)
(declare-var v64 Int)
(declare-var v65 Int)
(declare-var v66 Int)
(declare-var v67 Int)
(declare-var v68 Int)
(declare-var v69 Int)
(declare-var v70 Int)
(declare-var v71 Int)
(declare-var v72 Int)
(declare-var v73 Int)
(declare-var v74 Int)
(declare-var v75 Int)
(declare-var v76 Int)
(declare-var v77 Int)
(declare-var v78 Int)
(declare-var v79 Int)
(declare-var v80 Int)
(declare-var v81 Int)
(declare-var v82 Int)
(declare-var v83 Int)
(declare-var v84 Int)
(declare-var v85 Int)
(declare-var v86 Int)
(declare-var v87 Int)
(declare-var v88 Int)
(declare-var v89 Int)
(declare-var v90 Int)
(declare-var v91 Int)
(declare-var v92 Int)
(declare-var v93 Int)
(declare-var v94 Int)
(declare-var v95 Int)
(declare-var v96 Int)
(declare-var v97 Int)
(declare-var v98 Int)
(declare-var v99 Int)
(declare-var v100 Int)
(declare-var v101 Int)
(declare-var v102 Int)
(declare-var v103 Int)
(declare-var v104 Int)
(declare-var v105 Int)
(declare-var v106 Int)
(declare-var v107 Int)
(declare-var v108 Int)
(declare-var v109 Int)
(declare-var v110 Int)
(declare-var v111 Int)
(declare-var v112 Int)
(declare-var v113 Int)
(declare-var v114 Int)
(declare-var v115 Int)
(declare-var v116 Int)
(declare-var v117 Int)
(declare-var v118 Int)
(declare-var v119 Int)
(declare-var v120 Int)
(declare-var v121 Int)
(declare-var v122 Int)
(declare-var v123 Int)
(declare-var v124 Int)
(declare-var v125 Int)
(declare-var v126 Int)
(declare-var v127 Int)
(declare-var v128 Int)
(declare-var v129 Int)
(declare-var v130 Int)
(declare-var v131 Int)
(declare-var v132 Int)
(declare-var v133 Int)
(declare-var v134 Int)
(declare-var v135 Int)
(declare-var v136 Int)
(declare-var v137 Int)
(declare-var v138 Int)
(declare-var v139 Int)
(declare-var v140 Int)
(declare-var v141 Int)
(declare-var v142 Int)
(declare-var v143 Int)
(declare-var v144 Int)
(declare-var v145 Int)
(declare-var v146 Int)
(declare-var v147 Int)
(declare-var v148 Int)
(declare-var v149 Int)
(declare-var v150 Int)
(declare-var v151 Int)
(declare-var v152 Int)
(declare-var v153 Int)
(declare-var v154 Int)
(declare-var v155 Int)
(declare-var v156 Int)
(declare-var v157 Int)
(declare-var v158 Int)
(declare-var v159 Int)
(declare-var v160 Int)
(declare-var v161 Int)
(declare-var v162 Int)
(declare-var v163 Int)
(declare-var v164 Int)
(declare-var v165 Int)
(declare-var v166 Int)
(declare-var v167 Int)
(declare-var v168 Int)
(declare-var v169 Int)
(declare-var v170 Int)
(declare-var v171 Int)
(declare-var v172 Int)
(declare-var v173 Int)
(declare-var v174 Int)
(declare-var v175 Int)
(declare-var v176 Int)
(declare-var v177 Int)
(declare-var v178 Int)
(declare-var v179 Int)
(declare-var v180 Int)
(declare-var v181 Int)
(declare-var v182 Int)
(declare-var v183 Int)
(declare-var v184 Int)
(declare-var v185 Int)
(declare-var v186 Int)
(declare-var v187 Int)
(declare-var v188 Int)
(declare-var v189 Int)
(declare-var v190 Int)
(declare-var v191 Int)
(declare-var v192 Int)
(declare-var v193 Int)
(declare-var v194 Int)
(declare-var v195 Int)
(declare-var v196 Int)
(declare-var v197 Int)
(declare-var v198 Int)
(declare-var v199 Int)
(declare-var v200 Int)
(declare-var v201 Int)
(declare-var v202 Int)
(declare-var v203 Int)
(declare-var v204 Int)
(declare-var v205 Int)
(declare-var v206 Int)
(declare-var v207 Int)
(declare-var v208 Int)
(declare-var v209 Int)
(declare-var v210 Int)
(declare-var v211 Int)
(declare-var v212 Int)
(declare-var v213 Int)
(declare-var v214 Int)
(declare-var v215 Int)
(declare-var v216 Int)
(declare-var v217 Int)
(declare-var v218 Int)
(declare-var v219 Int)
(declare-var v220 Int)
(declare-var v221 Int)
(declare-var v222 Int)
(declare-var v223 Int)
(declare-var v224 Int)
(declare-var v225 Int)
(declare-var v226 Int)
(declare-var v227 Int)
(declare-var v228 Int)
(declare-var v229 Int)
(declare-var v230 Int)
(declare-var v231 Int)
(declare-var v232 Int)
(declare-var v233 Int)
(declare-var v234 Int)
(declare-var v235 Int)
(declare-var v236 Int)
(declare-var v237 Int)
(declare-var v238 Int)
(declare-var v239 Int)
(declare-var v240 Int)
(declare-var v241 Int)
(declare-var v242 Int)
(declare-var v243 Int)
(declare-var v244 Int)
(declare-var v245 Int)
(declare-var v246 Int)
(declare-var v247 Int)
(declare-var v248 Int)
(declare-var v249 Int)
(declare-var v250 Int)
(declare-var v251 Int)
(declare-var v252 Int)
(declare-var v253 Int)
(declare-var v254 Int)
(declare-var v255 Int)
(declare-var v256 Int)
(declare-var v257 Int)
(declare-var v258 Int)
(declare-var v259 Int)
(declare-var v260 Int)
(declare-var v261 Int)
(declare-var v262 Int)
(declare-var v263 Int)
(declare-var v264 Int)
(declare-var v265 Int)
(declare-var v266 Int)
(declare-var v267 Int)
(declare-var v268 Int)
(declare-var v269 Int)
(declare-var v270 Int)
(declare-var v271 Int)
(declare-var v272 Int)
(declare-var v273 Int)
(declare-var v274 Int)
(declare-var v275 Int)
(declare-var v276 Int)
(declare-var v277 Int)
(declare-var v278 Int)
(declare-var v279 Int)
(declare-var v280 Int)
(declare-var v281 Int)
(declare-var v282 Int)
(declare-var v283 Int)
(declare-var v284 Int)
(declare-var v285 Int)
(declare-var v286 Int)
(declare-var v287 Int)
(declare-var v288 Int)
(declare-var v289 Int)
(declare-var v290 Int)
(declare-var v291 Int)
(declare-var v292 Int)
(declare-var v293 Int)
(declare-var v294 Int)
(declare-var v295 Int)
(declare-var v296 Int)
(declare-var v297 Int)
(declare-var v298 Int)
(declare-var v299 Int)
(declare-var v300 Int)
(declare-var v301 Int)
(declare-var v302 Int)
(declare-var v303 Int)
(declare-var v304 Int)
(declare-var v305 Int)
(declare-var v306 Int)
(declare-var v307 Int)
(declare-var v308 Int)
(declare-var v309 Int)
(declare-var v310 Int)
(declare-var v311 Int)
(declare-var v312 Int)
(declare-var v313 Int)
(declare-var v314 Int)
(declare-var v315 Int)
(declare-var v316 Int)
(declare-var v317 Int)
(declare-var v318 Int)
(declare-var v319 Int)
(declare-var v320 Int)
(declare-var v321 Int)
(declare-var v322 Int)
(declare-var v323 Int)
(declare-var v324 Int)
(declare-var v325 Int)
(declare-var v326 Int)
(declare-var v327 Int)
(declare-var v328 Int)
(declare-var v329 Int)
(declare-var v330 Int)
(declare-var v331 Int)
(declare-var v332 Int)
(declare-var v333 Int)
(declare-var v334 Int)
(declare-var v335 Int)
(declare-var v336 Int)
(declare-var v337 Int)
(declare-var v338 Int)
(declare-var v339 Int)
(declare-var v340 Int)
(declare-var v341 Int)
(declare-var v342 Int)
(declare-var v343 Int)
(declare-var v344 Int)
(declare-var v345 Int)
(declare-var v346 Int)
(declare-var v347 Int)
(declare-var v348 Int)
(declare-var v349 Int)
(declare-var v350 Int)
(declare-var v351 Int)
(declare-var v352 Int)
(declare-var v353 Int)
(declare-var v354 Int)
(declare-var v355 Int)
(declare-var v356 Int)
(declare-var v357 Int)
(declare-var v358 Int)
(declare-var v359 Int)
(declare-var v360 Int)
(declare-var v361 Int)
(declare-var v362 Int)
(declare-var v363 Int)
(declare-var v364 Int)
(declare-var v365 Int)
(declare-var v366 Int)
(declare-var v367 Int)
(declare-var v368 Int)
(declare-var v369 Int)
(declare-var v370 Int)
(declare-var v371 Int)
(declare-var v372 Int)
(declare-var v373 Int)
(constraint (=> (= v373 (move (interpret-move (interpret-move (interpret-move (interpret-move (interpret-move (interpret-move 0 v310) v312) v316) v324) v340) v372) o0-6 o1-6)) (=> (= v372 (move (interpret-move (interpret-move (interpret-move (interpret-move (interpret-move 0 v341) v343) v347) v355) v371) o0-5 o1-5)) (=> (= v371 (move (interpret-move (interpret-move (interpret-move (interpret-move 0 v356) v358) v362) v370) o0-4 o1-4)) (=> (= v370 (move (interpret-move (interpret-move (interpret-move 0 v363) v365) v369) o0-3 o1-3)) (=> (= v369 (move (interpret-move (interpret-move 0 v366) v368) o0-2 o1-2)) (=> (= v368 (move (interpret-move 0 v367) o0-1 o1-1)) (=> (= v367 (move 0 99 98)) (=> (= v366 (move 0 99 98)) (=> (= v365 (move (interpret-move 0 v364) o0-1 o1-1)) (=> (= v364 (move 0 99 98)) (=> (= v363 (move 0 99 98)) (=> (= v362 (move (interpret-move (interpret-move 0 v359) v361) o0-2 o1-2)) (=> (= v361 (move (interpret-move 0 v360) o0-1 o1-1)) (=> (= v360 (move 0 99 98)) (=> (= v359 (move 0 99 98)) (=> (= v358 (move (interpret-move 0 v357) o0-1 o1-1)) (=> (= v357 (move 0 99 98)) (=> (= v356 (move 0 99 98)) (=> (= v355 (move (interpret-move (interpret-move (interpret-move 0 v348) v350) v354) o0-3 o1-3)) (=> (= v354 (move (interpret-move (interpret-move 0 v351) v353) o0-2 o1-2)) (=> (= v353 (move (interpret-move 0 v352) o0-1 o1-1)) (=> (= v352 (move 0 99 98)) (=> (= v351 (move 0 99 98)) (=> (= v350 (move (interpret-move 0 v349) o0-1 o1-1)) (=> (= v349 (move 0 99 98)) (=> (= v348 (move 0 99 98)) (=> (= v347 (move (interpret-move (interpret-move 0 v344) v346) o0-2 o1-2)) (=> (= v346 (move (interpret-move 0 v345) o0-1 o1-1)) (=> (= v345 (move 0 99 98)) (=> (= v344 (move 0 99 98)) (=> (= v343 (move (interpret-move 0 v342) o0-1 o1-1)) (=> (= v342 (move 0 99 98)) (=> (= v341 (move 0 99 98)) (=> (= v340 (move (interpret-move (interpret-move (interpret-move (interpret-move 0 v325) v327) v331) v339) o0-4 o1-4)) (=> (= v339 (move (interpret-move (interpret-move (interpret-move 0 v332) v334) v338) o0-3 o1-3)) (=> (= v338 (move (interpret-move (interpret-move 0 v335) v337) o0-2 o1-2)) (=> (= v337 (move (interpret-move 0 v336) o0-1 o1-1)) (=> (= v336 (move 0 99 98)) (=> (= v335 (move 0 99 98)) (=> (= v334 (move (interpret-move 0 v333) o0-1 o1-1)) (=> (= v333 (move 0 99 98)) (=> (= v332 (move 0 99 98)) (=> (= v331 (move (interpret-move (interpret-move 0 v328) v330) o0-2 o1-2)) (=> (= v330 (move (interpret-move 0 v329) o0-1 o1-1)) (=> (= v329 (move 0 99 98)) (=> (= v328 (move 0 99 98)) (=> (= v327 (move (interpret-move 0 v326) o0-1 o1-1)) (=> (= v326 (move 0 99 98)) (=> (= v325 (move 0 99 98)) (=> (= v324 (move (interpret-move (interpret-move (interpret-move 0 v317) v319) v323) o0-3 o1-3)) (=> (= v323 (move (interpret-move (interpret-move 0 v320) v322) o0-2 o1-2)) (=> (= v322 (move (interpret-move 0 v321) o0-1 o1-1)) (=> (= v321 (move 0 99 98)) (=> (= v320 (move 0 99 98)) (=> (= v319 (move (interpret-move 0 v318) o0-1 o1-1)) (=> (= v318 (move 0 99 98)) (=> (= v317 (move 0 99 98)) (=> (= v316 (move (interpret-move (interpret-move 0 v313) v315) o0-2 o1-2)) (=> (= v315 (move (interpret-move 0 v314) o0-1 o1-1)) (=> (= v314 (move 0 99 98)) (=> (= v313 (move 0 99 98)) (=> (= v312 (move (interpret-move 0 v311) o0-1 o1-1)) (=> (= v311 (move 0 99 98)) (=> (= v310 (move 0 99 98)) (=> (= v309 (move (interpret-move (interpret-move (interpret-move (interpret-move (interpret-move 0 v278) v280) v284) v292) v308) o0-5 o1-5)) (=> (= v308 (move (interpret-move (interpret-move (interpret-move (interpret-move 0 v293) v295) v299) v307) o0-4 o1-4)) (=> (= v307 (move (interpret-move (interpret-move (interpret-move 0 v300) v302) v306) o0-3 o1-3)) (=> (= v306 (move (interpret-move (interpret-move 0 v303) v305) o0-2 o1-2)) (=> (= v305 (move (interpret-move 0 v304) o0-1 o1-1)) (=> (= v304 (move 0 99 98)) (=> (= v303 (move 0 99 98)) (=> (= v302 (move (interpret-move 0 v301) o0-1 o1-1)) (=> (= v301 (move 0 99 98)) (=> (= v300 (move 0 99 98)) (=> (= v299 (move (interpret-move (interpret-move 0 v296) v298) o0-2 o1-2)) (=> (= v298 (move (interpret-move 0 v297) o0-1 o1-1)) (=> (= v297 (move 0 99 98)) (=> (= v296 (move 0 99 98)) (=> (= v295 (move (interpret-move 0 v294) o0-1 o1-1)) (=> (= v294 (move 0 99 98)) (=> (= v293 (move 0 99 98)) (=> (= v292 (move (interpret-move (interpret-move (interpret-move 0 v285) v287) v291) o0-3 o1-3)) (=> (= v291 (move (interpret-move (interpret-move 0 v288) v290) o0-2 o1-2)) (=> (= v290 (move (interpret-move 0 v289) o0-1 o1-1)) (=> (= v289 (move 0 99 98)) (=> (= v288 (move 0 99 98)) (=> (= v287 (move (interpret-move 0 v286) o0-1 o1-1)) (=> (= v286 (move 0 99 98)) (=> (= v285 (move 0 99 98)) (=> (= v284 (move (interpret-move (interpret-move 0 v281) v283) o0-2 o1-2)) (=> (= v283 (move (interpret-move 0 v282) o0-1 o1-1)) (=> (= v282 (move 0 99 98)) (=> (= v281 (move 0 99 98)) (=> (= v280 (move (interpret-move 0 v279) o0-1 o1-1)) (=> (= v279 (move 0 99 98)) (=> (= v278 (move 0 99 98)) (=> (= v277 (move (interpret-move (interpret-move (interpret-move (interpret-move 0 v262) v264) v268) v276) o0-4 o1-4)) (=> (= v276 (move (interpret-move (interpret-move (interpret-move 0 v269) v271) v275) o0-3 o1-3)) (=> (= v275 (move (interpret-move (interpret-move 0 v272) v274) o0-2 o1-2)) (=> (= v274 (move (interpret-move 0 v273) o0-1 o1-1)) (=> (= v273 (move 0 99 98)) (=> (= v272 (move 0 99 98)) (=> (= v271 (move (interpret-move 0 v270) o0-1 o1-1)) (=> (= v270 (move 0 99 98)) (=> (= v269 (move 0 99 98)) (=> (= v268 (move (interpret-move (interpret-move 0 v265) v267) o0-2 o1-2)) (=> (= v267 (move (interpret-move 0 v266) o0-1 o1-1)) (=> (= v266 (move 0 99 98)) (=> (= v265 (move 0 99 98)) (=> (= v264 (move (interpret-move 0 v263) o0-1 o1-1)) (=> (= v263 (move 0 99 98)) (=> (= v262 (move 0 99 98)) (=> (= v261 (move (interpret-move (interpret-move (interpret-move 0 v254) v256) v260) o0-3 o1-3)) (=> (= v260 (move (interpret-move (interpret-move 0 v257) v259) o0-2 o1-2)) (=> (= v259 (move (interpret-move 0 v258) o0-1 o1-1)) (=> (= v258 (move 0 99 98)) (=> (= v257 (move 0 99 98)) (=> (= v256 (move (interpret-move 0 v255) o0-1 o1-1)) (=> (= v255 (move 0 99 98)) (=> (= v254 (move 0 99 98)) (=> (= v253 (move (interpret-move (interpret-move 0 v250) v252) o0-2 o1-2)) (=> (= v252 (move (interpret-move 0 v251) o0-1 o1-1)) (=> (= v251 (move 0 99 98)) (=> (= v250 (move 0 99 98)) (=> (= v249 (move (interpret-move 0 v248) o0-1 o1-1)) (=> (= v248 (move 0 99 98)) (=> (= v247 (move 0 99 98)) (=> (= v246 (move (interpret-move (interpret-move (interpret-move (interpret-move (interpret-move 0 v215) v217) v221) v229) v245) o0-5 o1-5)) (=> (= v245 (move (interpret-move (interpret-move (interpret-move (interpret-move 0 v230) v232) v236) v244) o0-4 o1-4)) (=> (= v244 (move (interpret-move (interpret-move (interpret-move 0 v237) v239) v243) o0-3 o1-3)) (=> (= v243 (move (interpret-move (interpret-move 0 v240) v242) o0-2 o1-2)) (=> (= v242 (move (interpret-move 0 v241) o0-1 o1-1)) (=> (= v241 (move 0 99 98)) (=> (= v240 (move 0 99 98)) (=> (= v239 (move (interpret-move 0 v238) o0-1 o1-1)) (=> (= v238 (move 0 99 98)) (=> (= v237 (move 0 99 98)) (=> (= v236 (move (interpret-move (interpret-move 0 v233) v235) o0-2 o1-2)) (=> (= v235 (move (interpret-move 0 v234) o0-1 o1-1)) (=> (= v234 (move 0 99 98)) (=> (= v233 (move 0 99 98)) (=> (= v232 (move (interpret-move 0 v231) o0-1 o1-1)) (=> (= v231 (move 0 99 98)) (=> (= v230 (move 0 99 98)) (=> (= v229 (move (interpret-move (interpret-move (interpret-move 0 v222) v224) v228) o0-3 o1-3)) (=> (= v228 (move (interpret-move (interpret-move 0 v225) v227) o0-2 o1-2)) (=> (= v227 (move (interpret-move 0 v226) o0-1 o1-1)) (=> (= v226 (move 0 99 98)) (=> (= v225 (move 0 99 98)) (=> (= v224 (move (interpret-move 0 v223) o0-1 o1-1)) (=> (= v223 (move 0 99 98)) (=> (= v222 (move 0 99 98)) (=> (= v221 (move (interpret-move (interpret-move 0 v218) v220) o0-2 o1-2)) (=> (= v220 (move (interpret-move 0 v219) o0-1 o1-1)) (=> (= v219 (move 0 99 98)) (=> (= v218 (move 0 99 98)) (=> (= v217 (move (interpret-move 0 v216) o0-1 o1-1)) (=> (= v216 (move 0 99 98)) (=> (= v215 (move 0 99 98)) (=> (= v214 (move (interpret-move (interpret-move (interpret-move (interpret-move 0 v199) v201) v205) v213) o0-4 o1-4)) (=> (= v213 (move (interpret-move (interpret-move (interpret-move 0 v206) v208) v212) o0-3 o1-3)) (=> (= v212 (move (interpret-move (interpret-move 0 v209) v211) o0-2 o1-2)) (=> (= v211 (move (interpret-move 0 v210) o0-1 o1-1)) (=> (= v210 (move 0 99 98)) (=> (= v209 (move 0 99 98)) (=> (= v208 (move (interpret-move 0 v207) o0-1 o1-1)) (=> (= v207 (move 0 99 98)) (=> (= v206 (move 0 99 98)) (=> (= v205 (move (interpret-move (interpret-move 0 v202) v204) o0-2 o1-2)) (=> (= v204 (move (interpret-move 0 v203) o0-1 o1-1)) (=> (= v203 (move 0 99 98)) (=> (= v202 (move 0 99 98)) (=> (= v201 (move (interpret-move 0 v200) o0-1 o1-1)) (=> (= v200 (move 0 99 98)) (=> (= v199 (move 0 99 98)) (=> (= v198 (move (interpret-move (interpret-move (interpret-move 0 v191) v193) v197) o0-3 o1-3)) (=> (= v197 (move (interpret-move (interpret-move 0 v194) v196) o0-2 o1-2)) (=> (= v196 (move (interpret-move 0 v195) o0-1 o1-1)) (=> (= v195 (move 0 99 98)) (=> (= v194 (move 0 99 98)) (=> (= v193 (move (interpret-move 0 v192) o0-1 o1-1)) (=> (= v192 (move 0 99 98)) (=> (= v191 (move 0 99 98)) (=> (= v190 (move (interpret-move (interpret-move 0 v187) v189) o0-2 o1-2)) (=> (= v189 (move (interpret-move 0 v188) o0-1 o1-1)) (=> (= v188 (move 0 99 98)) (=> (= v187 (move 0 99 98)) (=> (= v186 (move (interpret-move 0 v185) o0-1 o1-1)) (=> (= v185 (move 0 99 98)) (=> (= v184 (move 0 99 98)) (=> (= v183 (move (interpret-move (interpret-move (interpret-move (interpret-move 0 v168) v170) v174) v182) o0-4 o1-4)) (=> (= v182 (move (interpret-move (interpret-move (interpret-move 0 v175) v177) v181) o0-3 o1-3)) (=> (= v181 (move (interpret-move (interpret-move 0 v178) v180) o0-2 o1-2)) (=> (= v180 (move (interpret-move 0 v179) o0-1 o1-1)) (=> (= v179 (move 0 99 98)) (=> (= v178 (move 0 99 98)) (=> (= v177 (move (interpret-move 0 v176) o0-1 o1-1)) (=> (= v176 (move 0 99 98)) (=> (= v175 (move 0 99 98)) (=> (= v174 (move (interpret-move (interpret-move 0 v171) v173) o0-2 o1-2)) (=> (= v173 (move (interpret-move 0 v172) o0-1 o1-1)) (=> (= v172 (move 0 99 98)) (=> (= v171 (move 0 99 98)) (=> (= v170 (move (interpret-move 0 v169) o0-1 o1-1)) (=> (= v169 (move 0 99 98)) (=> (= v168 (move 0 99 98)) (=> (= v167 (move (interpret-move (interpret-move (interpret-move 0 v160) v162) v166) o0-3 o1-3)) (=> (= v166 (move (interpret-move (interpret-move 0 v163) v165) o0-2 o1-2)) (=> (= v165 (move (interpret-move 0 v164) o0-1 o1-1)) (=> (= v164 (move 0 99 98)) (=> (= v163 (move 0 99 98)) (=> (= v162 (move (interpret-move 0 v161) o0-1 o1-1)) (=> (= v161 (move 0 99 98)) (=> (= v160 (move 0 99 98)) (=> (= v159 (move (interpret-move (interpret-move 0 v156) v158) o0-2 o1-2)) (=> (= v158 (move (interpret-move 0 v157) o0-1 o1-1)) (=> (= v157 (move 0 99 98)) (=> (= v156 (move 0 99 98)) (=> (= v155 (move (interpret-move 0 v154) o0-1 o1-1)) (=> (= v154 (move 0 99 98)) (=> (= v153 (move 0 99 98)) (=> (= v152 (move (interpret-move (interpret-move (interpret-move 0 v145) v147) v151) o0-3 o1-3)) (=> (= v151 (move (interpret-move (interpret-move 0 v148) v150) o0-2 o1-2)) (=> (= v150 (move (interpret-move 0 v149) o0-1 o1-1)) (=> (= v149 (move 0 99 98)) (=> (= v148 (move 0 99 98)) (=> (= v147 (move (interpret-move 0 v146) o0-1 o1-1)) (=> (= v146 (move 0 99 98)) (=> (= v145 (move 0 99 98)) (=> (= v144 (move (interpret-move (interpret-move 0 v141) v143) o0-2 o1-2)) (=> (= v143 (move (interpret-move 0 v142) o0-1 o1-1)) (=> (= v142 (move 0 99 98)) (=> (= v141 (move 0 99 98)) (=> (= v140 (move (interpret-move 0 v139) o0-1 o1-1)) (=> (= v139 (move 0 99 98)) (=> (= v138 (move 0 99 98)) (=> (= v137 (move (interpret-move (interpret-move 0 v134) v136) o0-2 o1-2)) (=> (= v136 (move (interpret-move 0 v135) o0-1 o1-1)) (=> (= v135 (move 0 99 98)) (=> (= v134 (move 0 99 98)) (=> (= v133 (move (interpret-move 0 v132) o0-1 o1-1)) (=> (= v132 (move 0 99 98)) (=> (= v131 (move 0 99 98)) (=> (= v130 (move (interpret-move 0 v129) o0-1 o1-1)) (=> (= v129 (move 0 99 98)) (=> (= v128 (move 0 99 98)) (=> (= v127 (move 0 99 98)) (=> (= v126 (move (interpret-move (interpret-move (interpret-move (interpret-move (interpret-move (interpret-move 0 v63) v65) v69) v77) v93) v125) o0-6 o1-6)) (=> (= v125 (move (interpret-move (interpret-move (interpret-move (interpret-move (interpret-move 0 v94) v96) v100) v108) v124) o0-5 o1-5)) (=> (= v124 (move (interpret-move (interpret-move (interpret-move (interpret-move 0 v109) v111) v115) v123) o0-4 o1-4)) (=> (= v123 (move (interpret-move (interpret-move (interpret-move 0 v116) v118) v122) o0-3 o1-3)) (=> (= v122 (move (interpret-move (interpret-move 0 v119) v121) o0-2 o1-2)) (=> (= v121 (move (interpret-move 0 v120) o0-1 o1-1)) (=> (= v120 (move 0 99 98)) (=> (= v119 (move 0 99 98)) (=> (= v118 (move (interpret-move 0 v117) o0-1 o1-1)) (=> (= v117 (move 0 99 98)) (=> (= v116 (move 0 99 98)) (=> (= v115 (move (interpret-move (interpret-move 0 v112) v114) o0-2 o1-2)) (=> (= v114 (move (interpret-move 0 v113) o0-1 o1-1)) (=> (= v113 (move 0 99 98)) (=> (= v112 (move 0 99 98)) (=> (= v111 (move (interpret-move 0 v110) o0-1 o1-1)) (=> (= v110 (move 0 99 98)) (=> (= v109 (move 0 99 98)) (=> (= v108 (move (interpret-move (interpret-move (interpret-move 0 v101) v103) v107) o0-3 o1-3)) (=> (= v107 (move (interpret-move (interpret-move 0 v104) v106) o0-2 o1-2)) (=> (= v106 (move (interpret-move 0 v105) o0-1 o1-1)) (=> (= v105 (move 0 99 98)) (=> (= v104 (move 0 99 98)) (=> (= v103 (move (interpret-move 0 v102) o0-1 o1-1)) (=> (= v102 (move 0 99 98)) (=> (= v101 (move 0 99 98)) (=> (= v100 (move (interpret-move (interpret-move 0 v97) v99) o0-2 o1-2)) (=> (= v99 (move (interpret-move 0 v98) o0-1 o1-1)) (=> (= v98 (move 0 99 98)) (=> (= v97 (move 0 99 98)) (=> (= v96 (move (interpret-move 0 v95) o0-1 o1-1)) (=> (= v95 (move 0 99 98)) (=> (= v94 (move 0 99 98)) (=> (= v93 (move (interpret-move (interpret-move (interpret-move (interpret-move 0 v78) v80) v84) v92) o0-4 o1-4)) (=> (= v92 (move (interpret-move (interpret-move (interpret-move 0 v85) v87) v91) o0-3 o1-3)) (=> (= v91 (move (interpret-move (interpret-move 0 v88) v90) o0-2 o1-2)) (=> (= v90 (move (interpret-move 0 v89) o0-1 o1-1)) (=> (= v89 (move 0 99 98)) (=> (= v88 (move 0 99 98)) (=> (= v87 (move (interpret-move 0 v86) o0-1 o1-1)) (=> (= v86 (move 0 99 98)) (=> (= v85 (move 0 99 98)) (=> (= v84 (move (interpret-move (interpret-move 0 v81) v83) o0-2 o1-2)) (=> (= v83 (move (interpret-move 0 v82) o0-1 o1-1)) (=> (= v82 (move 0 99 98)) (=> (= v81 (move 0 99 98)) (=> (= v80 (move (interpret-move 0 v79) o0-1 o1-1)) (=> (= v79 (move 0 99 98)) (=> (= v78 (move 0 99 98)) (=> (= v77 (move (interpret-move (interpret-move (interpret-move 0 v70) v72) v76) o0-3 o1-3)) (=> (= v76 (move (interpret-move (interpret-move 0 v73) v75) o0-2 o1-2)) (=> (= v75 (move (interpret-move 0 v74) o0-1 o1-1)) (=> (= v74 (move 0 99 98)) (=> (= v73 (move 0 99 98)) (=> (= v72 (move (interpret-move 0 v71) o0-1 o1-1)) (=> (= v71 (move 0 99 98)) (=> (= v70 (move 0 99 98)) (=> (= v69 (move (interpret-move (interpret-move 0 v66) v68) o0-2 o1-2)) (=> (= v68 (move (interpret-move 0 v67) o0-1 o1-1)) (=> (= v67 (move 0 99 98)) (=> (= v66 (move 0 99 98)) (=> (= v65 (move (interpret-move 0 v64) o0-1 o1-1)) (=> (= v64 (move 0 99 98)) (=> (= v63 (move 0 99 98)) (=> (= v62 (move (interpret-move (interpret-move (interpret-move (interpret-move (interpret-move 0 v31) v33) v37) v45) v61) o0-5 o1-5)) (=> (= v61 (move (interpret-move (interpret-move (interpret-move (interpret-move 0 v46) v48) v52) v60) o0-4 o1-4)) (=> (= v60 (move (interpret-move (interpret-move (interpret-move 0 v53) v55) v59) o0-3 o1-3)) (=> (= v59 (move (interpret-move (interpret-move 0 v56) v58) o0-2 o1-2)) (=> (= v58 (move (interpret-move 0 v57) o0-1 o1-1)) (=> (= v57 (move 0 99 98)) (=> (= v56 (move 0 99 98)) (=> (= v55 (move (interpret-move 0 v54) o0-1 o1-1)) (=> (= v54 (move 0 99 98)) (=> (= v53 (move 0 99 98)) (=> (= v52 (move (interpret-move (interpret-move 0 v49) v51) o0-2 o1-2)) (=> (= v51 (move (interpret-move 0 v50) o0-1 o1-1)) (=> (= v50 (move 0 99 98)) (=> (= v49 (move 0 99 98)) (=> (= v48 (move (interpret-move 0 v47) o0-1 o1-1)) (=> (= v47 (move 0 99 98)) (=> (= v46 (move 0 99 98)) (=> (= v45 (move (interpret-move (interpret-move (interpret-move 0 v38) v40) v44) o0-3 o1-3)) (=> (= v44 (move (interpret-move (interpret-move 0 v41) v43) o0-2 o1-2)) (=> (= v43 (move (interpret-move 0 v42) o0-1 o1-1)) (=> (= v42 (move 0 99 98)) (=> (= v41 (move 0 99 98)) (=> (= v40 (move (interpret-move 0 v39) o0-1 o1-1)) (=> (= v39 (move 0 99 98)) (=> (= v38 (move 0 99 98)) (=> (= v37 (move (interpret-move (interpret-move 0 v34) v36) o0-2 o1-2)) (=> (= v36 (move (interpret-move 0 v35) o0-1 o1-1)) (=> (= v35 (move 0 99 98)) (=> (= v34 (move 0 99 98)) (=> (= v33 (move (interpret-move 0 v32) o0-1 o1-1)) (=> (= v32 (move 0 99 98)) (=> (= v31 (move 0 99 98)) (=> (= v30 (move (interpret-move (interpret-move (interpret-move (interpret-move 0 v15) v17) v21) v29) o0-4 o1-4)) (=> (= v29 (move (interpret-move (interpret-move (interpret-move 0 v22) v24) v28) o0-3 o1-3)) (=> (= v28 (move (interpret-move (interpret-move 0 v25) v27) o0-2 o1-2)) (=> (= v27 (move (interpret-move 0 v26) o0-1 o1-1)) (=> (= v26 (move 0 99 98)) (=> (= v25 (move 0 99 98)) (=> (= v24 (move (interpret-move 0 v23) o0-1 o1-1)) (=> (= v23 (move 0 99 98)) (=> (= v22 (move 0 99 98)) (=> (= v21 (move (interpret-move (interpret-move 0 v18) v20) o0-2 o1-2)) (=> (= v20 (move (interpret-move 0 v19) o0-1 o1-1)) (=> (= v19 (move 0 99 98)) (=> (= v18 (move 0 99 98)) (=> (= v17 (move (interpret-move 0 v16) o0-1 o1-1)) (=> (= v16 (move 0 99 98)) (=> (= v15 (move 0 99 98)) (=> (= v14 (move (interpret-move (interpret-move (interpret-move 0 v7) v9) v13) o0-3 o1-3)) (=> (= v13 (move (interpret-move (interpret-move 0 v10) v12) o0-2 o1-2)) (=> (= v12 (move (interpret-move 0 v11) o0-1 o1-1)) (=> (= v11 (move 0 99 98)) (=> (= v10 (move 0 99 98)) (=> (= v9 (move (interpret-move 0 v8) o0-1 o1-1)) (=> (= v8 (move 0 99 98)) (=> (= v7 (move 0 99 98)) (=> (= v6 (move (interpret-move (interpret-move 0 v3) v5) o0-2 o1-2)) (=> (= v5 (move (interpret-move 0 v4) o0-1 o1-1)) (=> (= v4 (move 0 99 98)) (=> (= v3 (move 0 99 98)) (=> (= v2 (move (interpret-move 0 v1) o0-1 o1-1)) (=> (= v1 (move 0 99 98)) (=> (= v0 (move 0 99 98)) (or (and (= (interpret-move (interpret-move (interpret-move (interpret-move (interpret-move (interpret-move (interpret-move 0 v0) v2) v6) v14) v30) v62) v126) 61) (and (no-overlaps-one-step 0 v127 99 o0-1 98 o1-1) (and (no-overlaps-one-step (interpret-move 0 v128) v130 o0-1 o0-2 o1-1 o1-2) (and (no-overlaps-one-step (interpret-move (interpret-move 0 v131) v133) v137 o0-2 o0-3 o1-2 o1-3) (and (no-overlaps-one-step (interpret-move (interpret-move (interpret-move 0 v138) v140) v144) v152 o0-3 o0-4 o1-3 o1-4) (and (no-overlaps-one-step (interpret-move (interpret-move (interpret-move (interpret-move 0 v153) v155) v159) v167) v183 o0-4 o0-5 o1-4 o1-5) (and (no-overlaps-one-step (interpret-move (interpret-move (interpret-move (interpret-move (interpret-move 0 v184) v186) v190) v198) v214) v246 o0-5 o0-6 o1-5 o1-6) (and (no-overlaps-one-step (interpret-move (interpret-move (interpret-move (interpret-move (interpret-move (interpret-move 0 v247) v249) v253) v261) v277) v309) v373 o0-6 o0-7 o1-6 o1-7) true)))))))) (not (and (allowable-move-obstacle-0 99 o0-1) (and (allowable-move-obstacle-0 o0-1 o0-2) (and (allowable-move-obstacle-0 o0-2 o0-3) (and (allowable-move-obstacle-0 o0-3 o0-4) (and (allowable-move-obstacle-0 o0-4 o0-5) (and (allowable-move-obstacle-0 o0-5 o0-6) (and (allowable-move-obstacle-0 o0-6 o0-7) (and (allowable-move-obstacle-1 98 o1-1) (and (allowable-move-obstacle-1 o1-1 o1-2) (and (allowable-move-obstacle-1 o1-2 o1-3) (and (allowable-move-obstacle-1 o1-3 o1-4) (and (allowable-move-obstacle-1 o1-4 o1-5) (and (allowable-move-obstacle-1 o1-5 o1-6) (and (allowable-move-obstacle-1 o1-6 o1-7) true)))))))))))))))))))))))))))))))))))))))))))))))))))))))))))))))))))))))))))))))))))))))))))))))))))))))))))))))))))))))))))))))))))))))))))))))))))))))))))))))))))))))))))))))))))))))))))))))))))))))))))))))))))))))))))))))))))))))))))))))))))))))))))))))))))))))))))))))))))))))))))))))))))))))))))))))))))))))))))))))))))))))))))))))))))))))))))))))))))))))))))))))))))))))))))))))))))))))


(check-synth)



